instances/knapsack/discrete_knapsack_uncertainty/knapsack_100_9.lp
\ Model knapsack_100_9
\ LP format - for model browsing. Use MPS format to capture full model detail.
\ Signature: 0x98b4e0718ea0846a
Minimize
  - 96 x[0] - 20 x[1] - 26 x[2] - 42 x[3] - 91 x[4] - 87 x[5] - 71 x[6]
   - 21 x[7] - 80 x[8] - 96 x[9] - 33 x[10] - 45 x[11] - 69 x[12]
   - 92 x[13] - 29 x[14] - 98 x[15] - 100 x[16] - 100 x[17] - 8 x[18]
   - 55 x[19] - 67 x[20] - 17 x[21] - 86 x[22] - 74 x[23] - 71 x[24]
   - 68 x[25] - 14 x[26] - 29 x[27] - 12 x[28] - 10 x[29] - 83 x[30]
   - 14 x[31] - 94 x[32] - 81 x[33] - 37 x[34] - 11 x[35] - 39 x[36]
   - 5 x[37] - 76 x[38] - x[39] - 38 x[40] - 87 x[41] - 3 x[42] - 21 x[43]
   - 88 x[44] - 21 x[45] - 14 x[46] - 42 x[47] - 86 x[48] - 75 x[49]
   - 17 x[50] - 32 x[51] - 29 x[52] - 11 x[53] - 50 x[54] - 52 x[55]
   - 100 x[56] - 90 x[57] - 18 x[58] - 5 x[59] - 86 x[60] - 56 x[61]
   - 31 x[62] - 7 x[63] - 60 x[64] - 47 x[65] - 71 x[66] - 7 x[67]
   - 70 x[68] - 67 x[69] - 43 x[70] - 13 x[71] - 95 x[72] - 95 x[73]
   - 44 x[74] - 12 x[75] - 52 x[76] - 75 x[77] - 50 x[78] - 33 x[79]
   - 29 x[80] - 100 x[81] - 83 x[82] - 84 x[83] - 75 x[84] - 74 x[85]
   - 16 x[86] - 9 x[87] - 54 x[88] - 72 x[89] - 12 x[90] - 11 x[91]
   - 79 x[92] - 46 x[93] - 74 x[94] - 64 x[95] - 95 x[96] - 98 x[97]
   - 90 x[98] - 78 x[99]
Subject To
 primal_upper: 99 x[0] + 36 x[1] + 78 x[2] + 7 x[3] + 32 x[4] + 73 x[5]
   + 85 x[6] + 87 x[7] + 77 x[8] + 2 x[9] + 91 x[10] + 59 x[11] + 36 x[12]
   + 32 x[13] + 40 x[14] + 44 x[15] + 33 x[16] + 40 x[17] + 5 x[18]
   + 30 x[19] + 73 x[20] + 63 x[21] + 8 x[22] + 10 x[23] + 8 x[24]
   + 44 x[25] + 90 x[26] + 35 x[27] + 9 x[28] + 19 x[29] + 37 x[30]
   + 63 x[31] + 83 x[32] + 73 x[33] + 8 x[34] + x[35] + 100 x[36]
   + 92 x[37] + 76 x[38] + 22 x[39] + 71 x[40] + 73 x[41] + 10 x[42]
   + x[43] + 63 x[44] + 10 x[45] + 49 x[46] + x[47] + 35 x[48] + 92 x[49]
   + 78 x[50] + 32 x[51] + 61 x[52] + 56 x[53] + 8 x[54] + 95 x[55]
   + 53 x[56] + 66 x[57] + 100 x[58] + 30 x[59] + 72 x[60] + 98 x[61]
   + 7 x[62] + 6 x[63] + 71 x[64] + 16 x[65] + 12 x[66] + 86 x[67]
   + 8 x[68] + 61 x[69] + 17 x[70] + 33 x[71] + 70 x[72] + 67 x[73]
   + 11 x[74] + 84 x[75] + 98 x[76] + 35 x[77] + 92 x[78] + 6 x[79]
   + 97 x[80] + 13 x[81] + 50 x[82] + 17 x[83] + 29 x[84] + 5 x[85]
   + 43 x[86] + 88 x[87] + 46 x[88] + 11 x[89] + 92 x[90] + 44 x[91]
   + 16 x[92] + 35 x[93] + 28 x[94] + 49 x[95] + 45 x[96] + 60 x[97]
   + 20 x[98] + 76 x[99] + 9.9 r[0] + 3.6 r[1] + 7.8 r[2] + 0.7 r[3]
   + 3.2 r[4] + 7.3 r[5] + 8.5 r[6] + 8.7 r[7] + 7.7 r[8] + 0.2 r[9]
   + 9.1 r[10] + 5.9 r[11] + 3.6 r[12] + 3.2 r[13] + 4 r[14] + 4.4 r[15]
   + 3.3 r[16] + 4 r[17] + 0.5 r[18] + 3 r[19] + 7.3 r[20] + 6.3 r[21]
   + 0.8 r[22] + r[23] + 0.8 r[24] + 4.4 r[25] + 9 r[26] + 3.5 r[27]
   + 0.9 r[28] + 1.9 r[29] + 3.7 r[30] + 6.3 r[31] + 8.3 r[32] + 7.3 r[33]
   + 0.8 r[34] + 0.1 r[35] + 10 r[36] + 9.2 r[37] + 7.6 r[38] + 2.2 r[39]
   + 7.1 r[40] + 7.3 r[41] + r[42] + 0.1 r[43] + 6.3 r[44] + r[45]
   + 4.9 r[46] + 0.1 r[47] + 3.5 r[48] + 9.2 r[49] + 7.8 r[50] + 3.2 r[51]
   + 6.1 r[52] + 5.6 r[53] + 0.8 r[54] + 9.5 r[55] + 5.3 r[56] + 6.6 r[57]
   + 10 r[58] + 3 r[59] + 7.2 r[60] + 9.8 r[61] + 0.7 r[62] + 0.6 r[63]
   + 7.1 r[64] + 1.6 r[65] + 1.2 r[66] + 8.6 r[67] + 0.8 r[68] + 6.1 r[69]
   + 1.7 r[70] + 3.3 r[71] + 7 r[72] + 6.7 r[73] + 1.1 r[74] + 8.4 r[75]
   + 9.8 r[76] + 3.5 r[77] + 9.2 r[78] + 0.6 r[79] + 9.7 r[80] + 1.3 r[81]
   + 5 r[82] + 1.7 r[83] + 2.9 r[84] + 0.5 r[85] + 4.3 r[86] + 8.8 r[87]
   + 4.6 r[88] + 1.1 r[89] + 9.2 r[90] + 4.4 r[91] + 1.6 r[92] + 3.5 r[93]
   + 2.8 r[94] + 4.9 r[95] + 4.5 r[96] + 6 r[97] + 2 r[98] + 7.6 r[99]
   <= 447
 primal_lower: 2.839603035927025 x[0] + 1.43994569744846 x[1]
   + 4.686273877207584 x[2] + 4.673825040895825 x[3]
   + 0.9991781361722336 x[4] + 2.497091917406718 x[5]
   + 3.577269815111119 x[6] + 2.460855126801293 x[7]
   + 1.796665239248111 x[8] + 1.291495793379083 x[9]
   + 1.367868971223875 x[10] + 1.199798084682019 x[11]
   + 3.854371366858999 x[12] + 2.877274214521035 x[13]
   + 1.841800441358456 x[14] + 2.22879442029671 x[15]
   + 1.522896274132438 x[16] + 4.281867009643052 x[17]
   + 1.956497579897936 x[18] + 3.511365021988662 x[19]
   + 1.185923793218034 x[20] + 2.67360418796165 x[21]
   + 1.801838794941009 x[22] + 0.2720384041695267 x[23]
   + 1.218859304463173 x[24] + 1.160712327200841 x[25]
   + 4.761035523356581 x[26] + 1.047837062208221 x[27]
   + 0.5883578889569869 x[28] + 4.337308276142472 x[29]
   + 2.736228321773731 x[30] + 4.329561491612225 x[31]
   + 4.587367760714518 x[32] + 1.066738616394201 x[33]
   + 0.1556448810361512 x[34] + 3.012477627054538 x[35]
   + 3.099284547403789 x[36] + 4.415746256077803 x[37]
   + 0.9537995705691028 x[38] + 1.428555743199586 x[39]
   + 1.718555640898785 x[40] + 0.540735958731159 x[41]
   + 0.4355602416800484 x[42] + 1.148164573976215 x[43]
   + 1.590337063697354 x[44] + 2.130920879098945 x[45]
   + 3.458977076796364 x[46] + 2.958592876036142 x[47]
   + 0.8872234899714855 x[48] + 3.445821077102091 x[49]
   + 1.263898793156281 x[50] + 2.777733493554686 x[51]
   + 0.7897530226600995 x[52] + 3.85050492557645 x[53]
   + 4.950554635922514 x[54] + 1.132526148462472 x[55]
   + 4.30877655359373 x[56] + 4.352417238762869 x[57]
   + 3.570564942184975 x[58] + 0.3903798646045174 x[59]
   + 2.623868332018232 x[60] + 1.129762878436645 x[61]
   + 3.93965063818823 x[62] + 1.848903151645948 x[63]
   + 1.037296358777813 x[64] + 2.83296526821262 x[65]
   + 3.445934751654951 x[66] + 4.074716957501812 x[67]
   + 1.935136708442494 x[68] + 4.278639570121807 x[69]
   + 3.144102018134265 x[70] + 4.217988973421754 x[71]
   + 4.458333033980141 x[72] + 0.9010531194115319 x[73]
   + 4.633278977415546 x[74] + 2.344778800838365 x[75]
   + 4.648139362061336 x[76] + 1.4110671791498 x[77]
   + 3.290953977326573 x[78] + 3.150753428015175 x[79]
   + 0.5454768138067965 x[80] + 0.7536340556115602 x[81]
   + 4.949428692583608 x[82] + 4.142591334114605 x[83]
   + 3.384969969785676 x[84] + 2.156562221755563 x[85]
   + 2.089857881336264 x[86] + 4.071320684525689 x[87]
   + 3.125466183188827 x[88] + 4.079918439015453 x[89]
   + 0.6303858711532787 x[90] + 2.14431538210237 x[91]
   + 3.619695428785582 x[92] + 0.00441535049439457 x[93]
   + 4.308056841621894 x[94] + 3.235933190162116 x[95]
   + 2.040007177774981 x[96] + 3.388895508023403 x[97]
   + 2.090628694124437 x[98] + 1.963251699818227 x[99] + 34 u[0] + 14 u[1]
   + 88 u[2] + 81 u[3] + 34 u[4] + 80 u[5] + 15 u[6] + 98 u[7] + 23 u[8]
   + 56 u[9] + 42 u[10] + 25 u[11] + 22 u[12] + 94 u[13] + 99 u[14]
   + 15 u[15] + 7 u[16] + 2 u[17] + 51 u[18] + 16 u[19] + 59 u[20]
   + 10 u[21] + 78 u[22] + 13 u[23] + 11 u[24] + 6 u[25] + 100 u[26]
   + 66 u[27] + 48 u[28] + 21 u[29] + 28 u[30] + 78 u[31] + 10 u[32]
   + 67 u[33] + 78 u[34] + 55 u[35] + 34 u[36] + 71 u[37] + 10 u[38]
   + 89 u[39] + 33 u[40] + 36 u[41] + 64 u[42] + 100 u[43] + 37 u[44]
   + 65 u[45] + 92 u[46] + 36 u[47] + 45 u[48] + 58 u[49] + 69 u[50]
   + 94 u[51] + 75 u[52] + 98 u[53] + 7 u[54] + 82 u[55] + 23 u[56]
   + 65 u[57] + 46 u[58] + 88 u[59] + 99 u[60] + 13 u[61] + 50 u[62]
   + 37 u[63] + 78 u[64] + 78 u[65] + 91 u[66] + 25 u[67] + 98 u[68]
   + 40 u[69] + 36 u[70] + 20 u[71] + 96 u[72] + 37 u[73] + 78 u[74]
   + 19 u[75] + 45 u[76] + 5 u[77] + 39 u[78] + 33 u[79] + 20 u[80]
   + 92 u[81] + u[82] + 76 u[83] + 100 u[84] + 72 u[85] + 90 u[86]
   + 50 u[87] + 20 u[88] + 45 u[89] + 91 u[90] + 71 u[91] + 91 u[92]
   + 62 u[93] + 78 u[94] + 63 u[95] + 91 u[96] + 51 u[97] + 6 u[98]
   + 18 u[99] <= 76966
 mccormick1[0]: - u[0] + r[0] <= 0
 mccormick1[1]: - u[1] + r[1] <= 0
 mccormick1[2]: - u[2] + r[2] <= 0
 mccormick1[3]: - u[3] + r[3] <= 0
 mccormick1[4]: - u[4] + r[4] <= 0
 mccormick1[5]: - u[5] + r[5] <= 0
 mccormick1[6]: - u[6] + r[6] <= 0
 mccormick1[7]: - u[7] + r[7] <= 0
 mccormick1[8]: - u[8] + r[8] <= 0
 mccormick1[9]: - u[9] + r[9] <= 0
 mccormick1[10]: - u[10] + r[10] <= 0
 mccormick1[11]: - u[11] + r[11] <= 0
 mccormick1[12]: - u[12] + r[12] <= 0
 mccormick1[13]: - u[13] + r[13] <= 0
 mccormick1[14]: - u[14] + r[14] <= 0
 mccormick1[15]: - u[15] + r[15] <= 0
 mccormick1[16]: - u[16] + r[16] <= 0
 mccormick1[17]: - u[17] + r[17] <= 0
 mccormick1[18]: - u[18] + r[18] <= 0
 mccormick1[19]: - u[19] + r[19] <= 0
 mccormick1[20]: - u[20] + r[20] <= 0
 mccormick1[21]: - u[21] + r[21] <= 0
 mccormick1[22]: - u[22] + r[22] <= 0
 mccormick1[23]: - u[23] + r[23] <= 0
 mccormick1[24]: - u[24] + r[24] <= 0
 mccormick1[25]: - u[25] + r[25] <= 0
 mccormick1[26]: - u[26] + r[26] <= 0
 mccormick1[27]: - u[27] + r[27] <= 0
 mccormick1[28]: - u[28] + r[28] <= 0
 mccormick1[29]: - u[29] + r[29] <= 0
 mccormick1[30]: - u[30] + r[30] <= 0
 mccormick1[31]: - u[31] + r[31] <= 0
 mccormick1[32]: - u[32] + r[32] <= 0
 mccormick1[33]: - u[33] + r[33] <= 0
 mccormick1[34]: - u[34] + r[34] <= 0
 mccormick1[35]: - u[35] + r[35] <= 0
 mccormick1[36]: - u[36] + r[36] <= 0
 mccormick1[37]: - u[37] + r[37] <= 0
 mccormick1[38]: - u[38] + r[38] <= 0
 mccormick1[39]: - u[39] + r[39] <= 0
 mccormick1[40]: - u[40] + r[40] <= 0
 mccormick1[41]: - u[41] + r[41] <= 0
 mccormick1[42]: - u[42] + r[42] <= 0
 mccormick1[43]: - u[43] + r[43] <= 0
 mccormick1[44]: - u[44] + r[44] <= 0
 mccormick1[45]: - u[45] + r[45] <= 0
 mccormick1[46]: - u[46] + r[46] <= 0
 mccormick1[47]: - u[47] + r[47] <= 0
 mccormick1[48]: - u[48] + r[48] <= 0
 mccormick1[49]: - u[49] + r[49] <= 0
 mccormick1[50]: - u[50] + r[50] <= 0
 mccormick1[51]: - u[51] + r[51] <= 0
 mccormick1[52]: - u[52] + r[52] <= 0
 mccormick1[53]: - u[53] + r[53] <= 0
 mccormick1[54]: - u[54] + r[54] <= 0
 mccormick1[55]: - u[55] + r[55] <= 0
 mccormick1[56]: - u[56] + r[56] <= 0
 mccormick1[57]: - u[57] + r[57] <= 0
 mccormick1[58]: - u[58] + r[58] <= 0
 mccormick1[59]: - u[59] + r[59] <= 0
 mccormick1[60]: - u[60] + r[60] <= 0
 mccormick1[61]: - u[61] + r[61] <= 0
 mccormick1[62]: - u[62] + r[62] <= 0
 mccormick1[63]: - u[63] + r[63] <= 0
 mccormick1[64]: - u[64] + r[64] <= 0
 mccormick1[65]: - u[65] + r[65] <= 0
 mccormick1[66]: - u[66] + r[66] <= 0
 mccormick1[67]: - u[67] + r[67] <= 0
 mccormick1[68]: - u[68] + r[68] <= 0
 mccormick1[69]: - u[69] + r[69] <= 0
 mccormick1[70]: - u[70] + r[70] <= 0
 mccormick1[71]: - u[71] + r[71] <= 0
 mccormick1[72]: - u[72] + r[72] <= 0
 mccormick1[73]: - u[73] + r[73] <= 0
 mccormick1[74]: - u[74] + r[74] <= 0
 mccormick1[75]: - u[75] + r[75] <= 0
 mccormick1[76]: - u[76] + r[76] <= 0
 mccormick1[77]: - u[77] + r[77] <= 0
 mccormick1[78]: - u[78] + r[78] <= 0
 mccormick1[79]: - u[79] + r[79] <= 0
 mccormick1[80]: - u[80] + r[80] <= 0
 mccormick1[81]: - u[81] + r[81] <= 0
 mccormick1[82]: - u[82] + r[82] <= 0
 mccormick1[83]: - u[83] + r[83] <= 0
 mccormick1[84]: - u[84] + r[84] <= 0
 mccormick1[85]: - u[85] + r[85] <= 0
 mccormick1[86]: - u[86] + r[86] <= 0
 mccormick1[87]: - u[87] + r[87] <= 0
 mccormick1[88]: - u[88] + r[88] <= 0
 mccormick1[89]: - u[89] + r[89] <= 0
 mccormick1[90]: - u[90] + r[90] <= 0
 mccormick1[91]: - u[91] + r[91] <= 0
 mccormick1[92]: - u[92] + r[92] <= 0
 mccormick1[93]: - u[93] + r[93] <= 0
 mccormick1[94]: - u[94] + r[94] <= 0
 mccormick1[95]: - u[95] + r[95] <= 0
 mccormick1[96]: - u[96] + r[96] <= 0
 mccormick1[97]: - u[97] + r[97] <= 0
 mccormick1[98]: - u[98] + r[98] <= 0
 mccormick1[99]: - u[99] + r[99] <= 0
 mccormick2[0]: - x[0] + r[0] <= 0
 mccormick2[1]: - x[1] + r[1] <= 0
 mccormick2[2]: - x[2] + r[2] <= 0
 mccormick2[3]: - x[3] + r[3] <= 0
 mccormick2[4]: - x[4] + r[4] <= 0
 mccormick2[5]: - x[5] + r[5] <= 0
 mccormick2[6]: - x[6] + r[6] <= 0
 mccormick2[7]: - x[7] + r[7] <= 0
 mccormick2[8]: - x[8] + r[8] <= 0
 mccormick2[9]: - x[9] + r[9] <= 0
 mccormick2[10]: - x[10] + r[10] <= 0
 mccormick2[11]: - x[11] + r[11] <= 0
 mccormick2[12]: - x[12] + r[12] <= 0
 mccormick2[13]: - x[13] + r[13] <= 0
 mccormick2[14]: - x[14] + r[14] <= 0
 mccormick2[15]: - x[15] + r[15] <= 0
 mccormick2[16]: - x[16] + r[16] <= 0
 mccormick2[17]: - x[17] + r[17] <= 0
 mccormick2[18]: - x[18] + r[18] <= 0
 mccormick2[19]: - x[19] + r[19] <= 0
 mccormick2[20]: - x[20] + r[20] <= 0
 mccormick2[21]: - x[21] + r[21] <= 0
 mccormick2[22]: - x[22] + r[22] <= 0
 mccormick2[23]: - x[23] + r[23] <= 0
 mccormick2[24]: - x[24] + r[24] <= 0
 mccormick2[25]: - x[25] + r[25] <= 0
 mccormick2[26]: - x[26] + r[26] <= 0
 mccormick2[27]: - x[27] + r[27] <= 0
 mccormick2[28]: - x[28] + r[28] <= 0
 mccormick2[29]: - x[29] + r[29] <= 0
 mccormick2[30]: - x[30] + r[30] <= 0
 mccormick2[31]: - x[31] + r[31] <= 0
 mccormick2[32]: - x[32] + r[32] <= 0
 mccormick2[33]: - x[33] + r[33] <= 0
 mccormick2[34]: - x[34] + r[34] <= 0
 mccormick2[35]: - x[35] + r[35] <= 0
 mccormick2[36]: - x[36] + r[36] <= 0
 mccormick2[37]: - x[37] + r[37] <= 0
 mccormick2[38]: - x[38] + r[38] <= 0
 mccormick2[39]: - x[39] + r[39] <= 0
 mccormick2[40]: - x[40] + r[40] <= 0
 mccormick2[41]: - x[41] + r[41] <= 0
 mccormick2[42]: - x[42] + r[42] <= 0
 mccormick2[43]: - x[43] + r[43] <= 0
 mccormick2[44]: - x[44] + r[44] <= 0
 mccormick2[45]: - x[45] + r[45] <= 0
 mccormick2[46]: - x[46] + r[46] <= 0
 mccormick2[47]: - x[47] + r[47] <= 0
 mccormick2[48]: - x[48] + r[48] <= 0
 mccormick2[49]: - x[49] + r[49] <= 0
 mccormick2[50]: - x[50] + r[50] <= 0
 mccormick2[51]: - x[51] + r[51] <= 0
 mccormick2[52]: - x[52] + r[52] <= 0
 mccormick2[53]: - x[53] + r[53] <= 0
 mccormick2[54]: - x[54] + r[54] <= 0
 mccormick2[55]: - x[55] + r[55] <= 0
 mccormick2[56]: - x[56] + r[56] <= 0
 mccormick2[57]: - x[57] + r[57] <= 0
 mccormick2[58]: - x[58] + r[58] <= 0
 mccormick2[59]: - x[59] + r[59] <= 0
 mccormick2[60]: - x[60] + r[60] <= 0
 mccormick2[61]: - x[61] + r[61] <= 0
 mccormick2[62]: - x[62] + r[62] <= 0
 mccormick2[63]: - x[63] + r[63] <= 0
 mccormick2[64]: - x[64] + r[64] <= 0
 mccormick2[65]: - x[65] + r[65] <= 0
 mccormick2[66]: - x[66] + r[66] <= 0
 mccormick2[67]: - x[67] + r[67] <= 0
 mccormick2[68]: - x[68] + r[68] <= 0
 mccormick2[69]: - x[69] + r[69] <= 0
 mccormick2[70]: - x[70] + r[70] <= 0
 mccormick2[71]: - x[71] + r[71] <= 0
 mccormick2[72]: - x[72] + r[72] <= 0
 mccormick2[73]: - x[73] + r[73] <= 0
 mccormick2[74]: - x[74] + r[74] <= 0
 mccormick2[75]: - x[75] + r[75] <= 0
 mccormick2[76]: - x[76] + r[76] <= 0
 mccormick2[77]: - x[77] + r[77] <= 0
 mccormick2[78]: - x[78] + r[78] <= 0
 mccormick2[79]: - x[79] + r[79] <= 0
 mccormick2[80]: - x[80] + r[80] <= 0
 mccormick2[81]: - x[81] + r[81] <= 0
 mccormick2[82]: - x[82] + r[82] <= 0
 mccormick2[83]: - x[83] + r[83] <= 0
 mccormick2[84]: - x[84] + r[84] <= 0
 mccormick2[85]: - x[85] + r[85] <= 0
 mccormick2[86]: - x[86] + r[86] <= 0
 mccormick2[87]: - x[87] + r[87] <= 0
 mccormick2[88]: - x[88] + r[88] <= 0
 mccormick2[89]: - x[89] + r[89] <= 0
 mccormick2[90]: - x[90] + r[90] <= 0
 mccormick2[91]: - x[91] + r[91] <= 0
 mccormick2[92]: - x[92] + r[92] <= 0
 mccormick2[93]: - x[93] + r[93] <= 0
 mccormick2[94]: - x[94] + r[94] <= 0
 mccormick2[95]: - x[95] + r[95] <= 0
 mccormick2[96]: - x[96] + r[96] <= 0
 mccormick2[97]: - x[97] + r[97] <= 0
 mccormick2[98]: - x[98] + r[98] <= 0
 mccormick2[99]: - x[99] + r[99] <= 0
 mccormick3[0]: x[0] + u[0] - r[0] <= 1
 mccormick3[1]: x[1] + u[1] - r[1] <= 1
 mccormick3[2]: x[2] + u[2] - r[2] <= 1
 mccormick3[3]: x[3] + u[3] - r[3] <= 1
 mccormick3[4]: x[4] + u[4] - r[4] <= 1
 mccormick3[5]: x[5] + u[5] - r[5] <= 1
 mccormick3[6]: x[6] + u[6] - r[6] <= 1
 mccormick3[7]: x[7] + u[7] - r[7] <= 1
 mccormick3[8]: x[8] + u[8] - r[8] <= 1
 mccormick3[9]: x[9] + u[9] - r[9] <= 1
 mccormick3[10]: x[10] + u[10] - r[10] <= 1
 mccormick3[11]: x[11] + u[11] - r[11] <= 1
 mccormick3[12]: x[12] + u[12] - r[12] <= 1
 mccormick3[13]: x[13] + u[13] - r[13] <= 1
 mccormick3[14]: x[14] + u[14] - r[14] <= 1
 mccormick3[15]: x[15] + u[15] - r[15] <= 1
 mccormick3[16]: x[16] + u[16] - r[16] <= 1
 mccormick3[17]: x[17] + u[17] - r[17] <= 1
 mccormick3[18]: x[18] + u[18] - r[18] <= 1
 mccormick3[19]: x[19] + u[19] - r[19] <= 1
 mccormick3[20]: x[20] + u[20] - r[20] <= 1
 mccormick3[21]: x[21] + u[21] - r[21] <= 1
 mccormick3[22]: x[22] + u[22] - r[22] <= 1
 mccormick3[23]: x[23] + u[23] - r[23] <= 1
 mccormick3[24]: x[24] + u[24] - r[24] <= 1
 mccormick3[25]: x[25] + u[25] - r[25] <= 1
 mccormick3[26]: x[26] + u[26] - r[26] <= 1
 mccormick3[27]: x[27] + u[27] - r[27] <= 1
 mccormick3[28]: x[28] + u[28] - r[28] <= 1
 mccormick3[29]: x[29] + u[29] - r[29] <= 1
 mccormick3[30]: x[30] + u[30] - r[30] <= 1
 mccormick3[31]: x[31] + u[31] - r[31] <= 1
 mccormick3[32]: x[32] + u[32] - r[32] <= 1
 mccormick3[33]: x[33] + u[33] - r[33] <= 1
 mccormick3[34]: x[34] + u[34] - r[34] <= 1
 mccormick3[35]: x[35] + u[35] - r[35] <= 1
 mccormick3[36]: x[36] + u[36] - r[36] <= 1
 mccormick3[37]: x[37] + u[37] - r[37] <= 1
 mccormick3[38]: x[38] + u[38] - r[38] <= 1
 mccormick3[39]: x[39] + u[39] - r[39] <= 1
 mccormick3[40]: x[40] + u[40] - r[40] <= 1
 mccormick3[41]: x[41] + u[41] - r[41] <= 1
 mccormick3[42]: x[42] + u[42] - r[42] <= 1
 mccormick3[43]: x[43] + u[43] - r[43] <= 1
 mccormick3[44]: x[44] + u[44] - r[44] <= 1
 mccormick3[45]: x[45] + u[45] - r[45] <= 1
 mccormick3[46]: x[46] + u[46] - r[46] <= 1
 mccormick3[47]: x[47] + u[47] - r[47] <= 1
 mccormick3[48]: x[48] + u[48] - r[48] <= 1
 mccormick3[49]: x[49] + u[49] - r[49] <= 1
 mccormick3[50]: x[50] + u[50] - r[50] <= 1
 mccormick3[51]: x[51] + u[51] - r[51] <= 1
 mccormick3[52]: x[52] + u[52] - r[52] <= 1
 mccormick3[53]: x[53] + u[53] - r[53] <= 1
 mccormick3[54]: x[54] + u[54] - r[54] <= 1
 mccormick3[55]: x[55] + u[55] - r[55] <= 1
 mccormick3[56]: x[56] + u[56] - r[56] <= 1
 mccormick3[57]: x[57] + u[57] - r[57] <= 1
 mccormick3[58]: x[58] + u[58] - r[58] <= 1
 mccormick3[59]: x[59] + u[59] - r[59] <= 1
 mccormick3[60]: x[60] + u[60] - r[60] <= 1
 mccormick3[61]: x[61] + u[61] - r[61] <= 1
 mccormick3[62]: x[62] + u[62] - r[62] <= 1
 mccormick3[63]: x[63] + u[63] - r[63] <= 1
 mccormick3[64]: x[64] + u[64] - r[64] <= 1
 mccormick3[65]: x[65] + u[65] - r[65] <= 1
 mccormick3[66]: x[66] + u[66] - r[66] <= 1
 mccormick3[67]: x[67] + u[67] - r[67] <= 1
 mccormick3[68]: x[68] + u[68] - r[68] <= 1
 mccormick3[69]: x[69] + u[69] - r[69] <= 1
 mccormick3[70]: x[70] + u[70] - r[70] <= 1
 mccormick3[71]: x[71] + u[71] - r[71] <= 1
 mccormick3[72]: x[72] + u[72] - r[72] <= 1
 mccormick3[73]: x[73] + u[73] - r[73] <= 1
 mccormick3[74]: x[74] + u[74] - r[74] <= 1
 mccormick3[75]: x[75] + u[75] - r[75] <= 1
 mccormick3[76]: x[76] + u[76] - r[76] <= 1
 mccormick3[77]: x[77] + u[77] - r[77] <= 1
 mccormick3[78]: x[78] + u[78] - r[78] <= 1
 mccormick3[79]: x[79] + u[79] - r[79] <= 1
 mccormick3[80]: x[80] + u[80] - r[80] <= 1
 mccormick3[81]: x[81] + u[81] - r[81] <= 1
 mccormick3[82]: x[82] + u[82] - r[82] <= 1
 mccormick3[83]: x[83] + u[83] - r[83] <= 1
 mccormick3[84]: x[84] + u[84] - r[84] <= 1
 mccormick3[85]: x[85] + u[85] - r[85] <= 1
 mccormick3[86]: x[86] + u[86] - r[86] <= 1
 mccormick3[87]: x[87] + u[87] - r[87] <= 1
 mccormick3[88]: x[88] + u[88] - r[88] <= 1
 mccormick3[89]: x[89] + u[89] - r[89] <= 1
 mccormick3[90]: x[90] + u[90] - r[90] <= 1
 mccormick3[91]: x[91] + u[91] - r[91] <= 1
 mccormick3[92]: x[92] + u[92] - r[92] <= 1
 mccormick3[93]: x[93] + u[93] - r[93] <= 1
 mccormick3[94]: x[94] + u[94] - r[94] <= 1
 mccormick3[95]: x[95] + u[95] - r[95] <= 1
 mccormick3[96]: x[96] + u[96] - r[96] <= 1
 mccormick3[97]: x[97] + u[97] - r[97] <= 1
 mccormick3[98]: x[98] + u[98] - r[98] <= 1
 mccormick3[99]: x[99] + u[99] - r[99] <= 1
Bounds
Binaries
 x[0] x[1] x[2] x[3] x[4] x[5] x[6] x[7] x[8] x[9] x[10] x[11] x[12] x[13]
 x[14] x[15] x[16] x[17] x[18] x[19] x[20] x[21] x[22] x[23] x[24] x[25]
 x[26] x[27] x[28] x[29] x[30] x[31] x[32] x[33] x[34] x[35] x[36] x[37]
 x[38] x[39] x[40] x[41] x[42] x[43] x[44] x[45] x[46] x[47] x[48] x[49]
 x[50] x[51] x[52] x[53] x[54] x[55] x[56] x[57] x[58] x[59] x[60] x[61]
 x[62] x[63] x[64] x[65] x[66] x[67] x[68] x[69] x[70] x[71] x[72] x[73]
 x[74] x[75] x[76] x[77] x[78] x[79] x[80] x[81] x[82] x[83] x[84] x[85]
 x[86] x[87] x[88] x[89] x[90] x[91] x[92] x[93] x[94] x[95] x[96] x[97]
 x[98] x[99] u[0] u[1] u[2] u[3] u[4] u[5] u[6] u[7] u[8] u[9] u[10] u[11]
 u[12] u[13] u[14] u[15] u[16] u[17] u[18] u[19] u[20] u[21] u[22] u[23]
 u[24] u[25] u[26] u[27] u[28] u[29] u[30] u[31] u[32] u[33] u[34] u[35]
 u[36] u[37] u[38] u[39] u[40] u[41] u[42] u[43] u[44] u[45] u[46] u[47]
 u[48] u[49] u[50] u[51] u[52] u[53] u[54] u[55] u[56] u[57] u[58] u[59]
 u[60] u[61] u[62] u[63] u[64] u[65] u[66] u[67] u[68] u[69] u[70] u[71]
 u[72] u[73] u[74] u[75] u[76] u[77] u[78] u[79] u[80] u[81] u[82] u[83]
 u[84] u[85] u[86] u[87] u[88] u[89] u[90] u[91] u[92] u[93] u[94] u[95]
 u[96] u[97] u[98] u[99] r[0] r[1] r[2] r[3] r[4] r[5] r[6] r[7] r[8] r[9]
 r[10] r[11] r[12] r[13] r[14] r[15] r[16] r[17] r[18] r[19] r[20] r[21]
 r[22] r[23] r[24] r[25] r[26] r[27] r[28] r[29] r[30] r[31] r[32] r[33]
 r[34] r[35] r[36] r[37] r[38] r[39] r[40] r[41] r[42] r[43] r[44] r[45]
 r[46] r[47] r[48] r[49] r[50] r[51] r[52] r[53] r[54] r[55] r[56] r[57]
 r[58] r[59] r[60] r[61] r[62] r[63] r[64] r[65] r[66] r[67] r[68] r[69]
 r[70] r[71] r[72] r[73] r[74] r[75] r[76] r[77] r[78] r[79] r[80] r[81]
 r[82] r[83] r[84] r[85] r[86] r[87] r[88] r[89] r[90] r[91] r[92] r[93]
 r[94] r[95] r[96] r[97] r[98] r[99]
End
