instances/knapsack/discrete_knapsack_uncertainty/knapsack_100_9.kp
74429
100
447

99 9.9 96
36 3.6 20
78 7.8 26
7 0.7 42
32 3.2 91
73 7.3 87
85 8.5 71
87 8.7 21
77 7.7 80
2 0.2 96
91 9.1 33
59 5.9 45
36 3.6 69
32 3.2 92
40 4.0 29
44 4.4 98
33 3.3 100
40 4.0 100
5 0.5 8
30 3.0 55
73 7.3 67
63 6.3 17
8 0.8 86
10 1.0 74
8 0.8 71
44 4.4 68
90 9.0 14
35 3.5 29
9 0.9 12
19 1.9 10
37 3.7 83
63 6.3 14
83 8.3 94
73 7.3 81
8 0.8 37
1 0.1 11
100 10.0 39
92 9.2 5
76 7.6 76
22 2.2 1
71 7.1 38
73 7.3 87
10 1.0 3
1 0.1 21
63 6.3 88
10 1.0 21
49 4.9 14
1 0.1 42
35 3.5 86
92 9.2 75
78 7.8 17
32 3.2 32
61 6.1 29
56 5.6 11
8 0.8 50
95 9.5 52
53 5.3 100
66 6.6 90
100 10.0 18
30 3.0 5
72 7.2 86
98 9.8 56
7 0.7 31
6 0.6 7
71 7.1 60
16 1.6 47
12 1.2 71
86 8.6 7
8 0.8 70
61 6.1 67
17 1.7 43
33 3.3 13
70 7.0 95
67 6.7 95
11 1.1 44
84 8.4 12
98 9.8 52
35 3.5 75
92 9.2 50
6 0.6 33
97 9.7 29
13 1.3 100
50 5.0 83
17 1.7 84
29 2.9 75
5 0.5 74
43 4.3 16
88 8.8 9
46 4.6 54
11 1.1 72
92 9.2 12
44 4.4 11
16 1.6 79
35 3.5 46
28 2.8 74
49 4.9 64
45 4.5 95
60 6.0 98
20 2.0 90
76 7.6 78

76966
499

[2.8396030359270252 1.43994569744846 4.686273877207584 4.673825040895825 0.9991781361722336 2.497091917406718 3.5772698151111193 2.4608551268012926 1.7966652392481108 1.291495793379083 1.3678689712238747 1.1997980846820193 3.854371366858999 2.8772742145210355 1.8418004413584557 2.2287944202967096 1.5228962741324379 4.281867009643052 1.956497579897936 3.5113650219886616 1.185923793218034 2.67360418796165 1.801838794941009 0.27203840416952674 1.2188593044631728 1.160712327200841 4.761035523356581 1.047837062208221 0.5883578889569869 4.337308276142472 2.7362283217737313 4.329561491612225 4.5873677607145185 1.0667386163942012 0.15564488103615123 3.0124776270545377 3.0992845474037893 4.415746256077803 0.9537995705691028 1.4285557431995863 1.718555640898785 0.540735958731159 0.43556024168004837 1.1481645739762154 1.5903370636973544 2.1309208790989453 3.458977076796364 2.9585928760361417 0.8872234899714855 3.4458210771020914 1.2638987931562806 2.777733493554686 0.7897530226600995 3.85050492557645 4.950554635922514 1.1325261484624718 4.30877655359373 4.352417238762869 3.5705649421849754 0.3903798646045174 2.623868332018232 1.1297628784366447 3.9396506381882297 1.8489031516459484 1.0372963587778132 2.8329652682126203 3.4459347516549506 4.074716957501812 1.9351367084424937 4.278639570121807 3.1441020181342654 4.217988973421754 4.458333033980141 0.9010531194115319 4.633278977415546 2.3447788008383648 4.648139362061336 1.4110671791497995 3.2909539773265735 3.150753428015175 0.5454768138067965 0.7536340556115602 4.949428692583608 4.142591334114605 3.3849699697856757 2.1565622217555633 2.0898578813362643 4.071320684525689 3.1254661831888266 4.0799184390154535 0.6303858711532787 2.1443153821023704 3.619695428785582 0.004415350494394574 4.308056841621894 3.2359331901621164 2.0400071777749806 3.388895508023403 2.090628694124437 1.9632516998182268]

[34 14 88 81 34 80 15 98 23 56 42 25 22 94 99 15 7 2 51 16 59 10 78 13 11 6 100 66 48 21 28 78 10 67 78 55 34 71 10 89 33 36 64 100 37 65 92 36 45 58 69 94 75 98 7 82 23 65 46 88 99 13 50 37 78 78 91 25 98 40 36 20 96 37 78 19 45 5 39 33 20 92 1 76 100 72 90 50 20 45 91 71 91 62 78 63 91 51 6 18]
